p cnf 31 89
a 26 27 0
e 1 2 3 4 5 6 7 8 9 10 11 12 13 14 15 16 17 18 19 20 21 22 23 24 25 28 29 30 31 0
-2 -3 -4 0
2 3 -4 0
-2 3 4 0
2 -3 4 0
-1 4 -5 0
1 -4 -5 0
-1 -4 5 0
1 4 5 0
6 -1 -7 0
-6 1 -7 0
6 1 7 0
-6 -1 7 0
-8 -9 -10 0
8 9 -10 0
-8 9 10 0
8 -9 10 0
-7 -10 -11 0
7 10 -11 0
-7 10 11 0
7 -10 11 0
-12 5 0
-12 -11 0
-5 11 12 0
3 -13 -14 0
-3 13 -14 0
3 13 14 0
-3 -13 14 0
-15 4 0
-15 -13 0
-4 13 15 0
-16 13 0
-16 -9 0
-13 9 16 0
-17 -16 0
-17 -13 0
16 13 17 0
-18 2 0
-18 -16 0
-2 16 18 0
-17 -18 -19 0
17 18 -19 0
-17 18 19 0
17 -18 19 0
-20 -15 0
-20 19 0
15 -19 20 0
-14 -20 -21 0
14 20 -21 0
-14 20 21 0
14 -20 21 0
-23 2 0
-23 -22 0
-2 22 23 0
-24 18 0
-24 -3 0
-18 3 24 0
-25 -13 0
-25 -13 0
13 25 0
26 24 0
26 -25 0
-24 25 -26 0
23 26 -27 0
-23 -26 -27 0
23 -26 27 0
-23 26 27 0
21 -27 -28 0
-21 27 -28 0
21 27 28 0
-21 -27 28 0
-29 -12 0
-29 -28 0
12 28 29 0
16 -17 -30 0
-16 17 -30 0
16 17 30 0
-16 -17 30 0
31 -29 0
31 -30 0
29 30 -31 0
-25 -28 8 -20 0
9 -15 -18 13 29 -8 16 30 0
-23 -24 30 0
30 -25 -17 0
9 16 -8 -17 0
-22 -4 -12 24 -5 -15 -13 -6 0
-6 29 -8 18 25 1 -23 -21 0
2 6 -25 4 -20 0
31 0
